% Logging successfully configured
%%%mzn-stat: initTime=0.022481136
%%%mzn-stat: objective=338
%%%mzn-stat: nodes=1158
%%%mzn-stat: restarts=0
%%%mzn-stat: peakDepth=1157
%%%mzn-stat: solveTime=0.022647845
%%%mzn-stat: variables=1811
%%%mzn-stat: propagators=1443
%%%mzn-stat: failures=1
%%%mzn-stat: propagations=5054
%%%mzn-stat: nogoods=1
%%%mzn-stat: numAtomicConstraintsPropagated=0
%%%mzn-stat: circuitNumber1PropagationsTotal=163
%%%mzn-stat: circuitNumber1CircuitConflicts=0
%%%mzn-stat: circuitNumber1AlldiffConflicts=0
%%%mzn-stat: circuitNumber1TotalFixedEdgesAtConflict=0
%%%mzn-stat: circuitNumber1NumberOfConflicts=0
%%%mzn-stat: circuitNumber1GacPrunings=576
%%%mzn-stat: circuitNumber1PropagationsThatGacPruned=82
%%%mzn-stat: circuitNumber1TotalPruningHallSetSize=1020
%%%mzn-stat: circuitNumber1NumberOfPruningExplanations=576
%%%mzn-stat: circuitNumber1MaxPruningHallSetSize=48
%%%mzn-stat: circuitNumber1TotalSccSizeAtPruning=227
%%%mzn-stat: circuitNumber1NumberOfSccPruningCalls=82
%%%mzn-stat: circuitNumber1TotalVarsInvolvedInPruning=557
%%%mzn-stat: circuitNumber1MaxValuesPrunedFromSingleVar=4
%%%mzn-stat: circuitNumber1HallCircuitChecks=239
%%%mzn-stat: circuitNumber1HallCircuitPrunings=7
%%%mzn-stat: circuitNumber1CircuitPreventPrunings=30
%%%mzn-stat: AverageConflictSize=98
%%%mzn-stat: NumUnitNogoodsLearned=0
%%%mzn-stat: AverageLearnedNogoodLength=74
%%%mzn-stat: AverageBacktrackAmount=0
%%%mzn-stat: AverageLbd=74
%%%mzn-stat: 2AutonomousSearchNumBackupCalled=1081
%%%mzn-stat: 2AutonomousSearchNumPredicatesRemoved=0
%%%mzn-stat: 2AutonomousSearchNumCalls=1082
%%%mzn-stat: 2AutonomousSearchNumPredicatesAdded=80
%%%mzn-stat: 2AutonomousSearchAverageSizeOfHeap=0.07393715341959335
%%%mzn-stat: 2AutonomousSearchNumAssignedPredicatesEncountered=80
%%%mzn-stat-end
maxleg = 338;
succ = array1d(1..100,[2, 3, 7, 16, 35, 21, 13, 15, 10, 17, 14, 27, 22, 9, 19, 5, 1, 23, 31, 8, 12, 29, 24, 11, 18, 25, 28, 39, 32, 26, 6, 36, 34, 40, 43, 37, 42, 48, 41, 55, 64, 38, 47, 33, 20, 44, 50, 59, 62, 51, 52, 56, 68, 57, 53, 60, 65, 46, 71, 61, 79, 30, 45, 67, 74, 4, 72, 80, 58, 49, 84, 98, 63, 90, 69, 89, 100, 83, 77, 88, 85, 54, 97, 78, 66, 75, 91, 76, 94, 81, 96, 86, 70, 99, 93, 82, 73, 92, 87, 95]);
% time elapsed: 7.94 s
----------
%%%mzn-stat: initTime=0.022481136
%%%mzn-stat: objective=306
%%%mzn-stat: nodes=2315
%%%mzn-stat: restarts=0
%%%mzn-stat: peakDepth=1157
%%%mzn-stat: solveTime=0.045557733
%%%mzn-stat: variables=1811
%%%mzn-stat: propagators=1443
%%%mzn-stat: failures=2
%%%mzn-stat: propagations=7507
%%%mzn-stat: nogoods=2
%%%mzn-stat: numAtomicConstraintsPropagated=0
%%%mzn-stat: circuitNumber1PropagationsTotal=326
%%%mzn-stat: circuitNumber1CircuitConflicts=0
%%%mzn-stat: circuitNumber1AlldiffConflicts=0
%%%mzn-stat: circuitNumber1TotalFixedEdgesAtConflict=0
%%%mzn-stat: circuitNumber1NumberOfConflicts=0
%%%mzn-stat: circuitNumber1GacPrunings=1146
%%%mzn-stat: circuitNumber1PropagationsThatGacPruned=164
%%%mzn-stat: circuitNumber1TotalPruningHallSetSize=2034
%%%mzn-stat: circuitNumber1NumberOfPruningExplanations=1146
%%%mzn-stat: circuitNumber1MaxPruningHallSetSize=48
%%%mzn-stat: circuitNumber1TotalSccSizeAtPruning=454
%%%mzn-stat: circuitNumber1NumberOfSccPruningCalls=164
%%%mzn-stat: circuitNumber1TotalVarsInvolvedInPruning=1108
%%%mzn-stat: circuitNumber1MaxValuesPrunedFromSingleVar=4
%%%mzn-stat: circuitNumber1HallCircuitChecks=478
%%%mzn-stat: circuitNumber1HallCircuitPrunings=14
%%%mzn-stat: circuitNumber1CircuitPreventPrunings=61
%%%mzn-stat: AverageConflictSize=98
%%%mzn-stat: NumUnitNogoodsLearned=0
%%%mzn-stat: AverageLearnedNogoodLength=79
%%%mzn-stat: AverageBacktrackAmount=0
%%%mzn-stat: AverageLbd=74
%%%mzn-stat: 2AutonomousSearchNumBackupCalled=2161
%%%mzn-stat: 2AutonomousSearchNumPredicatesRemoved=0
%%%mzn-stat: 2AutonomousSearchNumCalls=2163
%%%mzn-stat: 2AutonomousSearchNumPredicatesAdded=169
%%%mzn-stat: 2AutonomousSearchAverageSizeOfHeap=0.08090614886731391
%%%mzn-stat: 2AutonomousSearchNumAssignedPredicatesEncountered=175
%%%mzn-stat-end
maxleg = 306;
succ = array1d(1..100,[2, 3, 7, 16, 35, 21, 13, 15, 10, 17, 14, 27, 22, 9, 19, 5, 1, 23, 31, 8, 12, 29, 24, 11, 18, 25, 28, 39, 32, 26, 6, 36, 34, 40, 43, 37, 42, 59, 41, 55, 64, 38, 47, 33, 20, 44, 50, 71, 62, 51, 52, 56, 68, 57, 53, 60, 65, 46, 48, 61, 79, 30, 45, 67, 74, 4, 72, 80, 58, 49, 84, 98, 63, 90, 69, 89, 100, 83, 77, 88, 85, 54, 97, 78, 66, 75, 91, 76, 94, 81, 96, 86, 70, 99, 93, 82, 73, 92, 87, 95]);
% time elapsed: 7.94 s
----------
%%%mzn-stat: initTime=0.022481136
%%%mzn-stat: objective=293
%%%mzn-stat: nodes=3482
%%%mzn-stat: restarts=0
%%%mzn-stat: peakDepth=1157
%%%mzn-stat: solveTime=0.071840357
%%%mzn-stat: variables=1811
%%%mzn-stat: propagators=1443
%%%mzn-stat: failures=7
%%%mzn-stat: propagations=10169
%%%mzn-stat: nogoods=7
%%%mzn-stat: numAtomicConstraintsPropagated=0
%%%mzn-stat: circuitNumber1PropagationsTotal=522
%%%mzn-stat: circuitNumber1CircuitConflicts=4
%%%mzn-stat: circuitNumber1AlldiffConflicts=1
%%%mzn-stat: circuitNumber1TotalFixedEdgesAtConflict=442
%%%mzn-stat: circuitNumber1NumberOfConflicts=5
%%%mzn-stat: circuitNumber1GacPrunings=1781
%%%mzn-stat: circuitNumber1PropagationsThatGacPruned=265
%%%mzn-stat: circuitNumber1TotalPruningHallSetSize=3371
%%%mzn-stat: circuitNumber1NumberOfPruningExplanations=1781
%%%mzn-stat: circuitNumber1MaxPruningHallSetSize=48
%%%mzn-stat: circuitNumber1TotalSccSizeAtPruning=754
%%%mzn-stat: circuitNumber1NumberOfSccPruningCalls=265
%%%mzn-stat: circuitNumber1TotalVarsInvolvedInPruning=1717
%%%mzn-stat: circuitNumber1MaxValuesPrunedFromSingleVar=4
%%%mzn-stat: circuitNumber1HallCircuitChecks=815
%%%mzn-stat: circuitNumber1HallCircuitPrunings=36
%%%mzn-stat: circuitNumber1CircuitPreventPrunings=94
%%%mzn-stat: AverageConflictSize=40.42857142857143
%%%mzn-stat: NumUnitNogoodsLearned=0
%%%mzn-stat: AverageLearnedNogoodLength=44.57142857142857
%%%mzn-stat: AverageBacktrackAmount=0
%%%mzn-stat: AverageLbd=33.42857142857143
%%%mzn-stat: 2AutonomousSearchNumBackupCalled=3242
%%%mzn-stat: 2AutonomousSearchNumPredicatesRemoved=0
%%%mzn-stat: 2AutonomousSearchNumCalls=3245
%%%mzn-stat: 2AutonomousSearchNumPredicatesAdded=536
%%%mzn-stat: 2AutonomousSearchAverageSizeOfHeap=0.19167950693374422
%%%mzn-stat: 2AutonomousSearchNumAssignedPredicatesEncountered=622
%%%mzn-stat-end
maxleg = 293;
succ = array1d(1..100,[2, 3, 7, 16, 35, 21, 13, 15, 10, 17, 14, 27, 22, 9, 19, 5, 1, 23, 31, 8, 12, 29, 24, 11, 18, 25, 28, 39, 32, 26, 6, 36, 34, 40, 43, 37, 42, 59, 41, 55, 64, 48, 47, 33, 20, 44, 50, 71, 62, 51, 52, 56, 68, 57, 53, 60, 65, 46, 73, 61, 79, 30, 45, 67, 74, 4, 82, 49, 58, 84, 78, 98, 63, 90, 69, 88, 100, 83, 77, 81, 85, 96, 97, 38, 66, 75, 54, 80, 87, 72, 99, 86, 70, 89, 93, 91, 76, 92, 94, 95]);
% time elapsed: 7.97 s
----------
%%%mzn-stat: initTime=0.022481136
%%%mzn-stat: objective=284
%%%mzn-stat: nodes=4630
%%%mzn-stat: restarts=0
%%%mzn-stat: peakDepth=1157
%%%mzn-stat: solveTime=0.101475938
%%%mzn-stat: variables=1811
%%%mzn-stat: propagators=1443
%%%mzn-stat: failures=15
%%%mzn-stat: propagations=12926
%%%mzn-stat: nogoods=15
%%%mzn-stat: numAtomicConstraintsPropagated=0
%%%mzn-stat: circuitNumber1PropagationsTotal=738
%%%mzn-stat: circuitNumber1CircuitConflicts=9
%%%mzn-stat: circuitNumber1AlldiffConflicts=1
%%%mzn-stat: circuitNumber1TotalFixedEdgesAtConflict=881
%%%mzn-stat: circuitNumber1NumberOfConflicts=10
%%%mzn-stat: circuitNumber1GacPrunings=2484
%%%mzn-stat: circuitNumber1PropagationsThatGacPruned=381
%%%mzn-stat: circuitNumber1TotalPruningHallSetSize=5108
%%%mzn-stat: circuitNumber1NumberOfPruningExplanations=2484
%%%mzn-stat: circuitNumber1MaxPruningHallSetSize=48
%%%mzn-stat: circuitNumber1TotalSccSizeAtPruning=1278
%%%mzn-stat: circuitNumber1NumberOfSccPruningCalls=381
%%%mzn-stat: circuitNumber1TotalVarsInvolvedInPruning=2384
%%%mzn-stat: circuitNumber1MaxValuesPrunedFromSingleVar=4
%%%mzn-stat: circuitNumber1HallCircuitChecks=1206
%%%mzn-stat: circuitNumber1HallCircuitPrunings=63
%%%mzn-stat: circuitNumber1CircuitPreventPrunings=134
%%%mzn-stat: AverageConflictSize=28.2
%%%mzn-stat: NumUnitNogoodsLearned=0
%%%mzn-stat: AverageLearnedNogoodLength=46.333333333333336
%%%mzn-stat: AverageBacktrackAmount=0
%%%mzn-stat: AverageLbd=27.8
%%%mzn-stat: 2AutonomousSearchNumBackupCalled=4300
%%%mzn-stat: 2AutonomousSearchNumPredicatesRemoved=0
%%%mzn-stat: 2AutonomousSearchNumCalls=4304
%%%mzn-stat: 2AutonomousSearchNumPredicatesAdded=1268
%%%mzn-stat: 2AutonomousSearchAverageSizeOfHeap=0.3403810408921933
%%%mzn-stat: 2AutonomousSearchNumAssignedPredicatesEncountered=1465
%%%mzn-stat-end
maxleg = 284;
succ = array1d(1..100,[2, 3, 7, 16, 35, 21, 13, 15, 10, 17, 14, 27, 22, 9, 19, 5, 1, 23, 31, 8, 12, 29, 24, 11, 18, 25, 28, 39, 32, 26, 6, 36, 34, 40, 43, 37, 42, 59, 41, 55, 64, 48, 47, 33, 20, 44, 50, 73, 62, 51, 52, 56, 68, 57, 53, 60, 65, 46, 71, 61, 79, 30, 45, 67, 74, 4, 82, 93, 58, 84, 78, 98, 63, 90, 69, 88, 100, 83, 77, 81, 85, 96, 97, 38, 66, 75, 54, 80, 87, 72, 99, 86, 70, 89, 49, 91, 76, 92, 94, 95]);
% time elapsed: 8.00 s
----------
%%%mzn-stat: initTime=0.022481136
%%%mzn-stat: objective=278
%%%mzn-stat: nodes=5765
%%%mzn-stat: restarts=0
%%%mzn-stat: peakDepth=1157
%%%mzn-stat: solveTime=0.124341378
%%%mzn-stat: variables=1811
%%%mzn-stat: propagators=1443
%%%mzn-stat: failures=16
%%%mzn-stat: propagations=15386
%%%mzn-stat: nogoods=16
%%%mzn-stat: numAtomicConstraintsPropagated=0
%%%mzn-stat: circuitNumber1PropagationsTotal=901
%%%mzn-stat: circuitNumber1CircuitConflicts=9
%%%mzn-stat: circuitNumber1AlldiffConflicts=1
%%%mzn-stat: circuitNumber1TotalFixedEdgesAtConflict=881
%%%mzn-stat: circuitNumber1NumberOfConflicts=10
%%%mzn-stat: circuitNumber1GacPrunings=3050
%%%mzn-stat: circuitNumber1PropagationsThatGacPruned=463
%%%mzn-stat: circuitNumber1TotalPruningHallSetSize=6086
%%%mzn-stat: circuitNumber1NumberOfPruningExplanations=3050
%%%mzn-stat: circuitNumber1MaxPruningHallSetSize=48
%%%mzn-stat: circuitNumber1TotalSccSizeAtPruning=1501
%%%mzn-stat: circuitNumber1NumberOfSccPruningCalls=463
%%%mzn-stat: circuitNumber1TotalVarsInvolvedInPruning=2934
%%%mzn-stat: circuitNumber1MaxValuesPrunedFromSingleVar=4
%%%mzn-stat: circuitNumber1HallCircuitChecks=1456
%%%mzn-stat: circuitNumber1HallCircuitPrunings=70
%%%mzn-stat: circuitNumber1CircuitPreventPrunings=165
%%%mzn-stat: AverageConflictSize=32.5625
%%%mzn-stat: NumUnitNogoodsLearned=0
%%%mzn-stat: AverageLearnedNogoodLength=48.625
%%%mzn-stat: AverageBacktrackAmount=0
%%%mzn-stat: AverageLbd=30.6875
%%%mzn-stat: 2AutonomousSearchNumBackupCalled=5358
%%%mzn-stat: 2AutonomousSearchNumPredicatesRemoved=0
%%%mzn-stat: 2AutonomousSearchNumCalls=5363
%%%mzn-stat: 2AutonomousSearchNumPredicatesAdded=1357
%%%mzn-stat: 2AutonomousSearchAverageSizeOfHeap=0.431661383553981
%%%mzn-stat: 2AutonomousSearchNumAssignedPredicatesEncountered=2315
%%%mzn-stat-end
maxleg = 278;
succ = array1d(1..100,[2, 3, 7, 16, 35, 21, 13, 15, 10, 17, 24, 27, 22, 9, 19, 5, 1, 23, 31, 8, 12, 29, 14, 30, 18, 25, 28, 39, 32, 26, 6, 36, 34, 40, 43, 37, 42, 11, 41, 55, 64, 48, 47, 33, 20, 44, 50, 59, 62, 51, 52, 56, 68, 57, 53, 60, 65, 46, 71, 61, 79, 70, 45, 67, 74, 4, 72, 80, 58, 84, 78, 98, 63, 90, 69, 89, 100, 83, 77, 88, 85, 54, 97, 38, 66, 75, 91, 76, 94, 81, 96, 86, 49, 99, 93, 82, 73, 92, 87, 95]);
% time elapsed: 8.03 s
----------
%%%mzn-stat: initTime=0.022481136
%%%mzn-stat: objective=277
%%%mzn-stat: nodes=6908
%%%mzn-stat: restarts=0
%%%mzn-stat: peakDepth=1157
%%%mzn-stat: solveTime=0.160831682
%%%mzn-stat: variables=1811
%%%mzn-stat: propagators=1443
%%%mzn-stat: failures=30
%%%mzn-stat: propagations=18276
%%%mzn-stat: nogoods=30
%%%mzn-stat: numAtomicConstraintsPropagated=0
%%%mzn-stat: circuitNumber1PropagationsTotal=1155
%%%mzn-stat: circuitNumber1CircuitConflicts=16
%%%mzn-stat: circuitNumber1AlldiffConflicts=1
%%%mzn-stat: circuitNumber1TotalFixedEdgesAtConflict=1386
%%%mzn-stat: circuitNumber1NumberOfConflicts=17
%%%mzn-stat: circuitNumber1GacPrunings=3898
%%%mzn-stat: circuitNumber1PropagationsThatGacPruned=596
%%%mzn-stat: circuitNumber1TotalPruningHallSetSize=9406
%%%mzn-stat: circuitNumber1NumberOfPruningExplanations=3898
%%%mzn-stat: circuitNumber1MaxPruningHallSetSize=48
%%%mzn-stat: circuitNumber1TotalSccSizeAtPruning=2375
%%%mzn-stat: circuitNumber1NumberOfSccPruningCalls=596
%%%mzn-stat: circuitNumber1TotalVarsInvolvedInPruning=3687
%%%mzn-stat: circuitNumber1MaxValuesPrunedFromSingleVar=4
%%%mzn-stat: circuitNumber1HallCircuitChecks=2021
%%%mzn-stat: circuitNumber1HallCircuitPrunings=83
%%%mzn-stat: circuitNumber1CircuitPreventPrunings=246
%%%mzn-stat: AverageConflictSize=23.9
%%%mzn-stat: NumUnitNogoodsLearned=0
%%%mzn-stat: AverageLearnedNogoodLength=42
%%%mzn-stat: AverageBacktrackAmount=0
%%%mzn-stat: AverageLbd=26.8
%%%mzn-stat: 2AutonomousSearchNumBackupCalled=6405
%%%mzn-stat: 2AutonomousSearchNumPredicatesRemoved=0
%%%mzn-stat: 2AutonomousSearchNumCalls=6411
%%%mzn-stat: 2AutonomousSearchNumPredicatesAdded=2063
%%%mzn-stat: 2AutonomousSearchAverageSizeOfHeap=0.5336141007643114
%%%mzn-stat: 2AutonomousSearchNumAssignedPredicatesEncountered=3421
%%%mzn-stat-end
maxleg = 277;
succ = array1d(1..100,[2, 3, 7, 16, 35, 21, 13, 15, 10, 17, 24, 27, 22, 9, 19, 5, 1, 23, 31, 8, 12, 29, 14, 30, 18, 25, 28, 39, 32, 26, 6, 36, 34, 40, 43, 37, 42, 11, 41, 55, 64, 48, 47, 33, 20, 44, 50, 59, 62, 51, 52, 56, 68, 57, 53, 60, 65, 46, 97, 61, 79, 70, 45, 67, 74, 4, 72, 80, 58, 84, 38, 98, 63, 90, 69, 89, 100, 83, 77, 88, 85, 54, 71, 78, 66, 75, 91, 76, 94, 81, 96, 86, 49, 99, 93, 82, 73, 92, 87, 95]);
% time elapsed: 8.07 s
----------
%%%mzn-stat: initTime=0.022481136
%%%mzn-stat: objective=269
%%%mzn-stat: nodes=8025
%%%mzn-stat: restarts=0
%%%mzn-stat: peakDepth=1157
%%%mzn-stat: solveTime=0.196143502
%%%mzn-stat: variables=1811
%%%mzn-stat: propagators=1443
%%%mzn-stat: failures=42
%%%mzn-stat: propagations=21191
%%%mzn-stat: nogoods=42
%%%mzn-stat: numAtomicConstraintsPropagated=0
%%%mzn-stat: circuitNumber1PropagationsTotal=1401
%%%mzn-stat: circuitNumber1CircuitConflicts=22
%%%mzn-stat: circuitNumber1AlldiffConflicts=1
%%%mzn-stat: circuitNumber1TotalFixedEdgesAtConflict=1830
%%%mzn-stat: circuitNumber1NumberOfConflicts=23
%%%mzn-stat: circuitNumber1GacPrunings=4707
%%%mzn-stat: circuitNumber1PropagationsThatGacPruned=721
%%%mzn-stat: circuitNumber1TotalPruningHallSetSize=12478
%%%mzn-stat: circuitNumber1NumberOfPruningExplanations=4707
%%%mzn-stat: circuitNumber1MaxPruningHallSetSize=48
%%%mzn-stat: circuitNumber1TotalSccSizeAtPruning=3169
%%%mzn-stat: circuitNumber1NumberOfSccPruningCalls=721
%%%mzn-stat: circuitNumber1TotalVarsInvolvedInPruning=4412
%%%mzn-stat: circuitNumber1MaxValuesPrunedFromSingleVar=4
%%%mzn-stat: circuitNumber1HallCircuitChecks=2572
%%%mzn-stat: circuitNumber1HallCircuitPrunings=94
%%%mzn-stat: circuitNumber1CircuitPreventPrunings=329
%%%mzn-stat: AverageConflictSize=22.285714285714285
%%%mzn-stat: NumUnitNogoodsLearned=0
%%%mzn-stat: AverageLearnedNogoodLength=39.88095238095238
%%%mzn-stat: AverageBacktrackAmount=0
%%%mzn-stat: AverageLbd=25.952380952380953
%%%mzn-stat: 2AutonomousSearchNumBackupCalled=7427
%%%mzn-stat: 2AutonomousSearchNumPredicatesRemoved=0
%%%mzn-stat: 2AutonomousSearchNumCalls=7434
%%%mzn-stat: 2AutonomousSearchNumPredicatesAdded=2801
%%%mzn-stat: 2AutonomousSearchAverageSizeOfHeap=0.6364003228410008
%%%mzn-stat: 2AutonomousSearchNumAssignedPredicatesEncountered=4731
%%%mzn-stat-end
maxleg = 269;
succ = array1d(1..100,[2, 3, 7, 16, 35, 21, 13, 15, 10, 17, 38, 27, 22, 9, 19, 5, 1, 23, 31, 8, 12, 29, 14, 30, 18, 25, 28, 39, 32, 26, 6, 36, 34, 40, 43, 37, 42, 24, 41, 55, 64, 48, 47, 33, 20, 44, 50, 59, 62, 51, 52, 56, 68, 57, 53, 60, 65, 46, 97, 61, 79, 70, 45, 67, 74, 4, 72, 80, 58, 84, 11, 98, 63, 90, 69, 89, 100, 83, 77, 88, 85, 54, 71, 78, 66, 75, 91, 76, 94, 81, 96, 86, 49, 99, 93, 82, 73, 92, 87, 95]);
% time elapsed: 8.11 s
----------
%%%mzn-stat: initTime=0.022481136
%%%mzn-stat: objective=257
%%%mzn-stat: nodes=9111
%%%mzn-stat: restarts=0
%%%mzn-stat: peakDepth=1157
%%%mzn-stat: solveTime=0.222966505
%%%mzn-stat: variables=1811
%%%mzn-stat: propagators=1443
%%%mzn-stat: failures=45
%%%mzn-stat: propagations=23829
%%%mzn-stat: nogoods=45
%%%mzn-stat: numAtomicConstraintsPropagated=0
%%%mzn-stat: circuitNumber1PropagationsTotal=1601
%%%mzn-stat: circuitNumber1CircuitConflicts=24
%%%mzn-stat: circuitNumber1AlldiffConflicts=1
%%%mzn-stat: circuitNumber1TotalFixedEdgesAtConflict=2014
%%%mzn-stat: circuitNumber1NumberOfConflicts=25
%%%mzn-stat: circuitNumber1GacPrunings=5332
%%%mzn-stat: circuitNumber1PropagationsThatGacPruned=820
%%%mzn-stat: circuitNumber1TotalPruningHallSetSize=13813
%%%mzn-stat: circuitNumber1NumberOfPruningExplanations=5332
%%%mzn-stat: circuitNumber1MaxPruningHallSetSize=48
%%%mzn-stat: circuitNumber1TotalSccSizeAtPruning=3612
%%%mzn-stat: circuitNumber1NumberOfSccPruningCalls=820
%%%mzn-stat: circuitNumber1TotalVarsInvolvedInPruning=5005
%%%mzn-stat: circuitNumber1MaxValuesPrunedFromSingleVar=4
%%%mzn-stat: circuitNumber1HallCircuitChecks=2952
%%%mzn-stat: circuitNumber1HallCircuitPrunings=99
%%%mzn-stat: circuitNumber1CircuitPreventPrunings=373
%%%mzn-stat: AverageConflictSize=23.11111111111111
%%%mzn-stat: NumUnitNogoodsLearned=0
%%%mzn-stat: AverageLearnedNogoodLength=39.37777777777778
%%%mzn-stat: AverageBacktrackAmount=0
%%%mzn-stat: AverageLbd=26
%%%mzn-stat: 2AutonomousSearchNumBackupCalled=8425
%%%mzn-stat: 2AutonomousSearchNumPredicatesRemoved=0
%%%mzn-stat: 2AutonomousSearchNumCalls=8433
%%%mzn-stat: 2AutonomousSearchNumPredicatesAdded=3013
%%%mzn-stat: 2AutonomousSearchAverageSizeOfHeap=0.7310565635005336
%%%mzn-stat: 2AutonomousSearchNumAssignedPredicatesEncountered=6165
%%%mzn-stat-end
maxleg = 257;
succ = array1d(1..100,[2, 3, 7, 16, 35, 21, 13, 15, 10, 17, 38, 27, 22, 9, 19, 5, 1, 23, 31, 8, 12, 29, 14, 30, 18, 25, 28, 39, 32, 26, 6, 36, 34, 40, 43, 37, 42, 24, 41, 55, 64, 48, 47, 33, 20, 44, 50, 59, 62, 51, 52, 56, 68, 57, 53, 60, 65, 46, 97, 61, 79, 70, 45, 67, 74, 4, 72, 80, 75, 84, 11, 98, 63, 90, 86, 89, 100, 83, 77, 88, 85, 54, 71, 78, 66, 92, 91, 76, 94, 81, 96, 58, 49, 99, 93, 82, 73, 69, 87, 95]);
% time elapsed: 8.14 s
----------
%%%mzn-stat: initTime=0.022481136
%%%mzn-stat: objective=252
%%%mzn-stat: nodes=10201
%%%mzn-stat: restarts=0
%%%mzn-stat: peakDepth=1157
%%%mzn-stat: solveTime=0.250339353
%%%mzn-stat: variables=1811
%%%mzn-stat: propagators=1443
%%%mzn-stat: failures=48
%%%mzn-stat: propagations=26530
%%%mzn-stat: nogoods=48
%%%mzn-stat: numAtomicConstraintsPropagated=0
%%%mzn-stat: circuitNumber1PropagationsTotal=1799
%%%mzn-stat: circuitNumber1CircuitConflicts=26
%%%mzn-stat: circuitNumber1AlldiffConflicts=1
%%%mzn-stat: circuitNumber1TotalFixedEdgesAtConflict=2170
%%%mzn-stat: circuitNumber1NumberOfConflicts=27
%%%mzn-stat: circuitNumber1GacPrunings=5952
%%%mzn-stat: circuitNumber1PropagationsThatGacPruned=919
%%%mzn-stat: circuitNumber1TotalPruningHallSetSize=15154
%%%mzn-stat: circuitNumber1NumberOfPruningExplanations=5952
%%%mzn-stat: circuitNumber1MaxPruningHallSetSize=48
%%%mzn-stat: circuitNumber1TotalSccSizeAtPruning=4065
%%%mzn-stat: circuitNumber1NumberOfSccPruningCalls=919
%%%mzn-stat: circuitNumber1TotalVarsInvolvedInPruning=5592
%%%mzn-stat: circuitNumber1MaxValuesPrunedFromSingleVar=4
%%%mzn-stat: circuitNumber1HallCircuitChecks=3333
%%%mzn-stat: circuitNumber1HallCircuitPrunings=106
%%%mzn-stat: circuitNumber1CircuitPreventPrunings=415
%%%mzn-stat: AverageConflictSize=23.833333333333332
%%%mzn-stat: NumUnitNogoodsLearned=0
%%%mzn-stat: AverageLearnedNogoodLength=40.520833333333336
%%%mzn-stat: AverageBacktrackAmount=0
%%%mzn-stat: AverageLbd=27.229166666666668
%%%mzn-stat: 2AutonomousSearchNumBackupCalled=9429
%%%mzn-stat: 2AutonomousSearchNumPredicatesRemoved=0
%%%mzn-stat: 2AutonomousSearchNumCalls=9438
%%%mzn-stat: 2AutonomousSearchNumPredicatesAdded=3366
%%%mzn-stat: 2AutonomousSearchAverageSizeOfHeap=0.8232676414494596
%%%mzn-stat: 2AutonomousSearchNumAssignedPredicatesEncountered=7770
%%%mzn-stat-end
maxleg = 252;
succ = array1d(1..100,[2, 3, 7, 16, 35, 21, 13, 15, 10, 17, 38, 27, 22, 9, 19, 5, 1, 23, 31, 8, 12, 29, 14, 30, 18, 25, 28, 39, 32, 26, 6, 36, 34, 40, 43, 37, 42, 24, 41, 55, 64, 48, 47, 33, 20, 44, 50, 59, 62, 51, 52, 56, 68, 57, 53, 60, 65, 69, 97, 61, 79, 70, 45, 67, 74, 4, 72, 80, 75, 84, 11, 98, 63, 90, 86, 89, 100, 83, 77, 88, 85, 54, 71, 78, 66, 92, 91, 76, 94, 81, 96, 46, 49, 99, 93, 82, 73, 58, 87, 95]);
% time elapsed: 8.17 s
----------
%%%mzn-stat: initTime=0.022481136
%%%mzn-stat: objective=248
%%%mzn-stat: nodes=11308
%%%mzn-stat: restarts=0
%%%mzn-stat: peakDepth=1157
%%%mzn-stat: solveTime=0.283108312
%%%mzn-stat: variables=1811
%%%mzn-stat: propagators=1443
%%%mzn-stat: failures=56
%%%mzn-stat: propagations=29360
%%%mzn-stat: nogoods=56
%%%mzn-stat: numAtomicConstraintsPropagated=0
%%%mzn-stat: circuitNumber1PropagationsTotal=2014
%%%mzn-stat: circuitNumber1CircuitConflicts=31
%%%mzn-stat: circuitNumber1AlldiffConflicts=1
%%%mzn-stat: circuitNumber1TotalFixedEdgesAtConflict=2506
%%%mzn-stat: circuitNumber1NumberOfConflicts=32
%%%mzn-stat: circuitNumber1GacPrunings=6697
%%%mzn-stat: circuitNumber1PropagationsThatGacPruned=1027
%%%mzn-stat: circuitNumber1TotalPruningHallSetSize=17857
%%%mzn-stat: circuitNumber1NumberOfPruningExplanations=6697
%%%mzn-stat: circuitNumber1MaxPruningHallSetSize=48
%%%mzn-stat: circuitNumber1TotalSccSizeAtPruning=4838
%%%mzn-stat: circuitNumber1NumberOfSccPruningCalls=1027
%%%mzn-stat: circuitNumber1TotalVarsInvolvedInPruning=6269
%%%mzn-stat: circuitNumber1MaxValuesPrunedFromSingleVar=4
%%%mzn-stat: circuitNumber1HallCircuitChecks=3746
%%%mzn-stat: circuitNumber1HallCircuitPrunings=113
%%%mzn-stat: circuitNumber1CircuitPreventPrunings=479
%%%mzn-stat: AverageConflictSize=22.696428571428573
%%%mzn-stat: NumUnitNogoodsLearned=0
%%%mzn-stat: AverageLearnedNogoodLength=42.642857142857146
%%%mzn-stat: AverageBacktrackAmount=0
%%%mzn-stat: AverageLbd=28.321428571428573
%%%mzn-stat: 2AutonomousSearchNumBackupCalled=10449
%%%mzn-stat: 2AutonomousSearchNumPredicatesRemoved=0
%%%mzn-stat: 2AutonomousSearchNumCalls=10459
%%%mzn-stat: 2AutonomousSearchNumPredicatesAdded=4417
%%%mzn-stat: 2AutonomousSearchAverageSizeOfHeap=0.8990343245052108
%%%mzn-stat: 2AutonomousSearchNumAssignedPredicatesEncountered=9403
%%%mzn-stat-end
maxleg = 248;
succ = array1d(1..100,[2, 3, 7, 16, 35, 21, 13, 15, 10, 17, 38, 27, 22, 9, 19, 5, 1, 23, 31, 8, 12, 29, 14, 30, 18, 25, 28, 39, 32, 26, 6, 36, 34, 40, 43, 37, 42, 59, 41, 55, 64, 48, 47, 33, 20, 44, 50, 73, 62, 51, 52, 56, 68, 57, 53, 60, 65, 69, 97, 61, 79, 70, 45, 67, 74, 4, 72, 80, 75, 84, 11, 98, 63, 90, 86, 89, 100, 83, 77, 88, 85, 54, 71, 78, 66, 92, 91, 76, 94, 81, 96, 46, 49, 99, 93, 82, 24, 58, 87, 95]);
% time elapsed: 8.20 s
----------
%%%mzn-stat: initTime=0.022481136
%%%mzn-stat: objective=246
%%%mzn-stat: nodes=12375
%%%mzn-stat: restarts=0
%%%mzn-stat: peakDepth=1157
%%%mzn-stat: solveTime=0.306325807
%%%mzn-stat: variables=1811
%%%mzn-stat: propagators=1443
%%%mzn-stat: failures=57
%%%mzn-stat: propagations=31858
%%%mzn-stat: nogoods=57
%%%mzn-stat: numAtomicConstraintsPropagated=0
%%%mzn-stat: circuitNumber1PropagationsTotal=2176
%%%mzn-stat: circuitNumber1CircuitConflicts=31
%%%mzn-stat: circuitNumber1AlldiffConflicts=1
%%%mzn-stat: circuitNumber1TotalFixedEdgesAtConflict=2506
%%%mzn-stat: circuitNumber1NumberOfConflicts=32
%%%mzn-stat: circuitNumber1GacPrunings=7239
%%%mzn-stat: circuitNumber1PropagationsThatGacPruned=1107
%%%mzn-stat: circuitNumber1TotalPruningHallSetSize=19042
%%%mzn-stat: circuitNumber1NumberOfPruningExplanations=7239
%%%mzn-stat: circuitNumber1MaxPruningHallSetSize=48
%%%mzn-stat: circuitNumber1TotalSccSizeAtPruning=5123
%%%mzn-stat: circuitNumber1NumberOfSccPruningCalls=1107
%%%mzn-stat: circuitNumber1TotalVarsInvolvedInPruning=6792
%%%mzn-stat: circuitNumber1MaxValuesPrunedFromSingleVar=4
%%%mzn-stat: circuitNumber1HallCircuitChecks=4005
%%%mzn-stat: circuitNumber1HallCircuitPrunings=118
%%%mzn-stat: circuitNumber1CircuitPreventPrunings=511
%%%mzn-stat: AverageConflictSize=24.017543859649123
%%%mzn-stat: NumUnitNogoodsLearned=0
%%%mzn-stat: AverageLearnedNogoodLength=43.526315789473685
%%%mzn-stat: AverageBacktrackAmount=0
%%%mzn-stat: AverageLbd=29.105263157894736
%%%mzn-stat: 2AutonomousSearchNumBackupCalled=11440
%%%mzn-stat: 2AutonomousSearchNumPredicatesRemoved=0
%%%mzn-stat: 2AutonomousSearchNumCalls=11451
%%%mzn-stat: 2AutonomousSearchNumPredicatesAdded=4515
%%%mzn-stat: 2AutonomousSearchAverageSizeOfHeap=0.9640206095537508
%%%mzn-stat: 2AutonomousSearchNumAssignedPredicatesEncountered=11039
%%%mzn-stat-end
maxleg = 246;
succ = array1d(1..100,[2, 3, 7, 16, 35, 21, 13, 15, 10, 17, 38, 27, 22, 9, 19, 5, 1, 23, 31, 8, 12, 29, 14, 30, 18, 25, 28, 39, 32, 26, 6, 36, 34, 40, 43, 37, 42, 59, 41, 55, 64, 48, 47, 33, 20, 44, 50, 73, 62, 51, 52, 56, 68, 57, 53, 60, 65, 69, 97, 61, 79, 84, 45, 67, 74, 4, 72, 80, 75, 93, 11, 98, 63, 90, 86, 89, 100, 83, 77, 88, 85, 54, 71, 78, 66, 92, 91, 76, 94, 81, 96, 46, 49, 99, 70, 82, 24, 58, 87, 95]);
% time elapsed: 8.23 s
----------
%%%mzn-stat: initTime=0.022481136
%%%mzn-stat: objective=243
%%%mzn-stat: nodes=13496
%%%mzn-stat: restarts=0
%%%mzn-stat: peakDepth=1157
%%%mzn-stat: solveTime=0.336749135
%%%mzn-stat: variables=1811
%%%mzn-stat: propagators=1443
%%%mzn-stat: failures=69
%%%mzn-stat: propagations=34794
%%%mzn-stat: nogoods=69
%%%mzn-stat: numAtomicConstraintsPropagated=0
%%%mzn-stat: circuitNumber1PropagationsTotal=2400
%%%mzn-stat: circuitNumber1CircuitConflicts=42
%%%mzn-stat: circuitNumber1AlldiffConflicts=1
%%%mzn-stat: circuitNumber1TotalFixedEdgesAtConflict=3475
%%%mzn-stat: circuitNumber1NumberOfConflicts=43
%%%mzn-stat: circuitNumber1GacPrunings=7920
%%%mzn-stat: circuitNumber1PropagationsThatGacPruned=1217
%%%mzn-stat: circuitNumber1TotalPruningHallSetSize=20840
%%%mzn-stat: circuitNumber1NumberOfPruningExplanations=7920
%%%mzn-stat: circuitNumber1MaxPruningHallSetSize=48
%%%mzn-stat: circuitNumber1TotalSccSizeAtPruning=5776
%%%mzn-stat: circuitNumber1NumberOfSccPruningCalls=1217
%%%mzn-stat: circuitNumber1TotalVarsInvolvedInPruning=7439
%%%mzn-stat: circuitNumber1MaxValuesPrunedFromSingleVar=4
%%%mzn-stat: circuitNumber1HallCircuitChecks=4389
%%%mzn-stat: circuitNumber1HallCircuitPrunings=129
%%%mzn-stat: circuitNumber1CircuitPreventPrunings=546
%%%mzn-stat: AverageConflictSize=20.18840579710145
%%%mzn-stat: NumUnitNogoodsLearned=0
%%%mzn-stat: AverageLearnedNogoodLength=40.43478260869565
%%%mzn-stat: AverageBacktrackAmount=0
%%%mzn-stat: AverageLbd=26.594202898550726
%%%mzn-stat: 2AutonomousSearchNumBackupCalled=12469
%%%mzn-stat: 2AutonomousSearchNumPredicatesRemoved=0
%%%mzn-stat: 2AutonomousSearchNumCalls=12481
%%%mzn-stat: 2AutonomousSearchNumPredicatesAdded=5163
%%%mzn-stat: 2AutonomousSearchAverageSizeOfHeap=1.0481531928531367
%%%mzn-stat: 2AutonomousSearchNumAssignedPredicatesEncountered=13082
%%%mzn-stat-end
maxleg = 243;
succ = array1d(1..100,[2, 3, 7, 16, 35, 21, 13, 15, 10, 17, 38, 27, 22, 9, 19, 5, 1, 23, 31, 8, 12, 29, 14, 30, 18, 25, 28, 39, 32, 26, 6, 36, 34, 40, 43, 37, 42, 59, 41, 55, 64, 48, 47, 33, 20, 44, 50, 73, 62, 51, 52, 56, 68, 57, 53, 60, 65, 69, 97, 61, 79, 84, 45, 67, 82, 4, 72, 80, 75, 93, 11, 98, 63, 90, 86, 89, 100, 83, 77, 88, 85, 74, 71, 78, 66, 92, 54, 76, 91, 81, 96, 46, 49, 87, 70, 99, 24, 58, 94, 95]);
% time elapsed: 8.26 s
----------
%%%mzn-stat: initTime=0.022481136
%%%mzn-stat: objective=241
%%%mzn-stat: nodes=14561
%%%mzn-stat: restarts=0
%%%mzn-stat: peakDepth=1157
%%%mzn-stat: solveTime=0.357805433
%%%mzn-stat: variables=1811
%%%mzn-stat: propagators=1443
%%%mzn-stat: failures=69
%%%mzn-stat: propagations=37283
%%%mzn-stat: nogoods=69
%%%mzn-stat: numAtomicConstraintsPropagated=0
%%%mzn-stat: circuitNumber1PropagationsTotal=2553
%%%mzn-stat: circuitNumber1CircuitConflicts=42
%%%mzn-stat: circuitNumber1AlldiffConflicts=1
%%%mzn-stat: circuitNumber1TotalFixedEdgesAtConflict=3475
%%%mzn-stat: circuitNumber1NumberOfConflicts=43
%%%mzn-stat: circuitNumber1GacPrunings=8451
%%%mzn-stat: circuitNumber1PropagationsThatGacPruned=1293
%%%mzn-stat: circuitNumber1TotalPruningHallSetSize=21996
%%%mzn-stat: circuitNumber1NumberOfPruningExplanations=8451
%%%mzn-stat: circuitNumber1MaxPruningHallSetSize=48
%%%mzn-stat: circuitNumber1TotalSccSizeAtPruning=6047
%%%mzn-stat: circuitNumber1NumberOfSccPruningCalls=1293
%%%mzn-stat: circuitNumber1TotalVarsInvolvedInPruning=7950
%%%mzn-stat: circuitNumber1MaxValuesPrunedFromSingleVar=4
%%%mzn-stat: circuitNumber1HallCircuitChecks=4629
%%%mzn-stat: circuitNumber1HallCircuitPrunings=135
%%%mzn-stat: circuitNumber1CircuitPreventPrunings=578
%%%mzn-stat: AverageConflictSize=20.18840579710145
%%%mzn-stat: NumUnitNogoodsLearned=0
%%%mzn-stat: AverageLearnedNogoodLength=40.43478260869565
%%%mzn-stat: AverageBacktrackAmount=0
%%%mzn-stat: AverageLbd=26.594202898550726
%%%mzn-stat: 2AutonomousSearchNumBackupCalled=13462
%%%mzn-stat: 2AutonomousSearchNumPredicatesRemoved=0
%%%mzn-stat: 2AutonomousSearchNumCalls=13475
%%%mzn-stat: 2AutonomousSearchNumPredicatesAdded=5163
%%%mzn-stat: 2AutonomousSearchAverageSizeOfHeap=1.1224489795918366
%%%mzn-stat: 2AutonomousSearchNumAssignedPredicatesEncountered=15125
%%%mzn-stat-end
maxleg = 241;
succ = array1d(1..100,[2, 3, 7, 16, 35, 21, 13, 15, 10, 17, 38, 27, 22, 9, 19, 5, 1, 23, 31, 8, 12, 29, 14, 30, 18, 25, 28, 39, 32, 26, 6, 36, 34, 40, 43, 37, 42, 59, 41, 55, 64, 48, 47, 33, 20, 44, 50, 73, 62, 51, 52, 56, 68, 57, 53, 60, 65, 69, 97, 61, 79, 84, 45, 67, 82, 4, 72, 80, 86, 93, 11, 98, 63, 90, 46, 89, 100, 83, 77, 88, 85, 74, 71, 78, 66, 92, 54, 76, 91, 81, 96, 75, 49, 87, 70, 99, 24, 58, 94, 95]);
% time elapsed: 8.29 s
----------
%%%mzn-stat: initTime=0.022481136
%%%mzn-stat: objective=238
%%%mzn-stat: nodes=15628
%%%mzn-stat: restarts=0
%%%mzn-stat: peakDepth=1157
%%%mzn-stat: solveTime=0.37879222
%%%mzn-stat: variables=1811
%%%mzn-stat: propagators=1443
%%%mzn-stat: failures=69
%%%mzn-stat: propagations=39783
%%%mzn-stat: nogoods=69
%%%mzn-stat: numAtomicConstraintsPropagated=0
%%%mzn-stat: circuitNumber1PropagationsTotal=2706
%%%mzn-stat: circuitNumber1CircuitConflicts=42
%%%mzn-stat: circuitNumber1AlldiffConflicts=1
%%%mzn-stat: circuitNumber1TotalFixedEdgesAtConflict=3475
%%%mzn-stat: circuitNumber1NumberOfConflicts=43
%%%mzn-stat: circuitNumber1GacPrunings=8978
%%%mzn-stat: circuitNumber1PropagationsThatGacPruned=1369
%%%mzn-stat: circuitNumber1TotalPruningHallSetSize=23148
%%%mzn-stat: circuitNumber1NumberOfPruningExplanations=8978
%%%mzn-stat: circuitNumber1MaxPruningHallSetSize=48
%%%mzn-stat: circuitNumber1TotalSccSizeAtPruning=6318
%%%mzn-stat: circuitNumber1NumberOfSccPruningCalls=1369
%%%mzn-stat: circuitNumber1TotalVarsInvolvedInPruning=8457
%%%mzn-stat: circuitNumber1MaxValuesPrunedFromSingleVar=4
%%%mzn-stat: circuitNumber1HallCircuitChecks=4869
%%%mzn-stat: circuitNumber1HallCircuitPrunings=141
%%%mzn-stat: circuitNumber1CircuitPreventPrunings=610
%%%mzn-stat: AverageConflictSize=20.18840579710145
%%%mzn-stat: NumUnitNogoodsLearned=0
%%%mzn-stat: AverageLearnedNogoodLength=40.43478260869565
%%%mzn-stat: AverageBacktrackAmount=0
%%%mzn-stat: AverageLbd=26.594202898550726
%%%mzn-stat: 2AutonomousSearchNumBackupCalled=14457
%%%mzn-stat: 2AutonomousSearchNumPredicatesRemoved=0
%%%mzn-stat: 2AutonomousSearchNumCalls=14471
%%%mzn-stat: 2AutonomousSearchNumPredicatesAdded=5163
%%%mzn-stat: 2AutonomousSearchAverageSizeOfHeap=1.186372745490982
%%%mzn-stat: 2AutonomousSearchNumAssignedPredicatesEncountered=17168
%%%mzn-stat-end
maxleg = 238;
succ = array1d(1..100,[2, 3, 7, 16, 35, 21, 13, 15, 10, 17, 38, 27, 22, 9, 19, 5, 1, 23, 31, 8, 12, 29, 14, 30, 18, 25, 28, 39, 32, 26, 6, 36, 34, 40, 43, 37, 42, 59, 41, 55, 64, 48, 47, 33, 20, 44, 50, 73, 62, 51, 52, 56, 68, 57, 53, 60, 65, 69, 97, 61, 79, 84, 45, 67, 82, 4, 72, 80, 92, 93, 11, 98, 63, 90, 46, 89, 100, 83, 77, 88, 85, 74, 71, 78, 66, 75, 54, 76, 91, 81, 96, 86, 49, 87, 70, 99, 24, 58, 94, 95]);
% time elapsed: 8.31 s
----------
%%%mzn-stat: initTime=0.022481136
%%%mzn-stat: objective=232
%%%mzn-stat: nodes=16659
%%%mzn-stat: restarts=0
%%%mzn-stat: peakDepth=1157
%%%mzn-stat: solveTime=0.399717924
%%%mzn-stat: variables=1811
%%%mzn-stat: propagators=1443
%%%mzn-stat: failures=69
%%%mzn-stat: propagations=42267
%%%mzn-stat: nogoods=69
%%%mzn-stat: numAtomicConstraintsPropagated=0
%%%mzn-stat: circuitNumber1PropagationsTotal=2857
%%%mzn-stat: circuitNumber1CircuitConflicts=42
%%%mzn-stat: circuitNumber1AlldiffConflicts=1
%%%mzn-stat: circuitNumber1TotalFixedEdgesAtConflict=3475
%%%mzn-stat: circuitNumber1NumberOfConflicts=43
%%%mzn-stat: circuitNumber1GacPrunings=9501
%%%mzn-stat: circuitNumber1PropagationsThatGacPruned=1444
%%%mzn-stat: circuitNumber1TotalPruningHallSetSize=24370
%%%mzn-stat: circuitNumber1NumberOfPruningExplanations=9501
%%%mzn-stat: circuitNumber1MaxPruningHallSetSize=48
%%%mzn-stat: circuitNumber1TotalSccSizeAtPruning=6584
%%%mzn-stat: circuitNumber1NumberOfSccPruningCalls=1444
%%%mzn-stat: circuitNumber1TotalVarsInvolvedInPruning=8959
%%%mzn-stat: circuitNumber1MaxValuesPrunedFromSingleVar=4
%%%mzn-stat: circuitNumber1HallCircuitChecks=5099
%%%mzn-stat: circuitNumber1HallCircuitPrunings=147
%%%mzn-stat: circuitNumber1CircuitPreventPrunings=642
%%%mzn-stat: AverageConflictSize=20.18840579710145
%%%mzn-stat: NumUnitNogoodsLearned=0
%%%mzn-stat: AverageLearnedNogoodLength=40.43478260869565
%%%mzn-stat: AverageBacktrackAmount=0
%%%mzn-stat: AverageLbd=26.594202898550726
%%%mzn-stat: 2AutonomousSearchNumBackupCalled=15417
%%%mzn-stat: 2AutonomousSearchNumPredicatesRemoved=0
%%%mzn-stat: 2AutonomousSearchNumCalls=15432
%%%mzn-stat: 2AutonomousSearchNumPredicatesAdded=5163
%%%mzn-stat: 2AutonomousSearchAverageSizeOfHeap=1.2448807672369102
%%%mzn-stat: 2AutonomousSearchNumAssignedPredicatesEncountered=19211
%%%mzn-stat-end
maxleg = 232;
succ = array1d(1..100,[2, 3, 7, 16, 35, 21, 13, 15, 10, 17, 38, 27, 22, 9, 19, 5, 1, 23, 31, 8, 12, 29, 14, 30, 18, 25, 28, 39, 32, 26, 6, 36, 34, 40, 43, 37, 42, 59, 41, 55, 64, 48, 47, 33, 20, 44, 50, 73, 62, 51, 52, 56, 68, 57, 53, 60, 65, 69, 97, 61, 79, 93, 45, 67, 82, 4, 72, 80, 92, 84, 11, 98, 63, 90, 46, 89, 100, 83, 77, 88, 85, 74, 71, 78, 66, 75, 54, 76, 91, 81, 96, 86, 70, 87, 49, 99, 24, 58, 94, 95]);
% time elapsed: 8.34 s
----------
